15
0 160 50 165 138 159 157 27 175 149 195 60 92 73 82
160 0 56 82 35 22 60 155 56 65 71 38 198 38 178
50 56 0 41 195 84 112 112 194 37 162 95 181 131 34
165 82 41 0 136 114 109 64 34 65 77 183 119 33 41
138 35 195 136 0 77 112 151 48 149 17 128 196 34 87
159 22 84 114 77 0 16 28 66 61 90 56 43 184 181
157 60 112 109 112 16 0 58 115 122 76 175 171 36 57
27 155 112 64 151 28 58 0 90 51 141 22 56 40 31
175 56 194 34 48 66 115 90 0 179 68 24 69 160 200
149 65 37 65 149 61 122 51 179 0 25 73 36 119 58
195 71 162 77 17 90 76 141 68 25 0 106 131 94 157
60 38 95 183 128 56 175 22 24 73 106 0 156 52 33
92 198 181 119 196 43 171 56 69 36 131 156 0 191 42
73 38 131 33 34 184 36 40 160 119 94 52 191 0 129
82 178 34 41 87 181 57 31 200 58 157 33 42 129 0
